30
2
20125
349 218
false
0.25
7 18 39 26 4 18 13 44 23 27 19 17 46 11 11 40 1 37 13 33 12 22 33 28 45 4 32 40 23 23
49 7 32 5 32 38 23 21 14 46 37 31 3 13 20 8 29 18 31 16 41 28 46 10 38 11 6 26 37 45
25 79 2 0 50 28 80 88 15 61 58 22 39 87 24 31 65 37 42 15 96 48 66 45 58 55 0 95 53 97
0 0 0 24 0 0 0 0 0 74 0 0 0 0 58 31 81 60 0 0 0 0 0 0 0 11 0 0 86 0
0 61 37 0 0 29 0 0 0 64 0 0 7 43 0 0 0 0 0 0 4 0 0 17 0 0 0 0 0
0 0 0 0 0 48 0 0 0 97 0 0 0 0 0 0 0 0 87 0 6 0 0 19 0 0 80 0
0 93 0 0 0 0 11 0 87 0 0 99 92 0 0 0 0 58 0 0 14 46 0 0 0 0 3
0 0 0 29 0 100 67 0 5 0 0 0 0 0 0 0 0 0 0 1 0 0 0 21 0 0
0 0 82 0 0 94 80 0 0 0 97 85 87 0 70 0 50 34 0 0 47 0 0 0 0
0 0 0 0 0 0 0 0 0 0 28 64 0 0 71 0 0 0 11 0 0 0 69 58
0 0 0 0 0 0 77 0 0 0 26 49 0 0 34 94 0 66 0 0 0 0 0
0 12 0 0 0 0 42 0 0 17 30 0 99 0 15 0 56 92 0 0 0 0
0 49 0 52 8 0 80 0 0 0 0 0 0 0 0 10 0 0 0 0 98
0 0 0 0 0 0 0 81 0 0 13 0 0 0 0 0 0 0 0 15
0 0 21 10 6 0 0 0 82 0 0 0 0 0 27 0 0 0 0
0 0 0 0 0 0 0 0 0 0 0 16 79 0 0 0 0 0
0 60 80 0 0 0 51 4 91 81 0 49 0 0 0 0 0
0 66 7 33 0 0 0 0 0 0 0 0 0 50 0 0
0 0 0 0 0 40 0 0 16 0 0 0 1 0 85
0 0 34 0 0 87 0 0 0 0 0 0 0 0
0 0 0 68 6 0 0 25 0 0 13 0 0
0 0 0 0 0 0 93 0 13 0 9 0
0 0 0 0 0 0 0 0 0 0 0
0 36 0 47 0 0 0 16 42 0
0 0 0 0 0 89 0 0 0
0 0 0 0 0 0 37 0
0 0 98 0 0 0 0
0 35 0 0 0 6
0 86 0 61 0
0 0 0 83
0 0 0
0 0
0 0 0 0 0 0 50 0 25 99 0 0 0 0 0 0 0 66 54 0 0 0 0 0 0 47 0 0 0
0 0 54 58 0 0 0 0 0 0 0 0 0 0 0 13 0 0 0 0 0 0 0 96 0 0 55 31
0 0 0 0 0 18 11 17 0 0 0 0 0 64 0 0 0 0 0 46 4 0 97 0 0 0 0
0 0 81 0 0 0 0 0 42 78 0 25 0 53 0 0 0 0 0 60 0 0 56 0 0 0
0 0 60 0 0 0 0 29 0 52 0 0 0 0 0 0 0 0 34 0 0 0 0 0 0
0 0 0 86 0 25 42 0 0 1 23 0 0 25 0 64 0 0 86 0 0 0 0 0
0 0 0 91 77 0 0 0 0 0 0 0 0 91 46 0 60 53 0 33 87 0 54
0 0 0 0 0 12 0 29 0 0 47 0 0 0 96 0 0 48 0 0 0 0
0 28 0 0 0 0 0 0 0 0 0 0 65 72 0 0 79 0 0 0 0
0 17 0 0 1 91 92 0 0 72 0 68 0 0 0 0 0 0 0 0
0 0 0 0 0 69 0 0 0 0 0 0 0 0 0 0 0 0 85
0 0 0 0 78 0 0 0 0 96 0 0 0 68 0 80 0 0
0 0 0 0 71 0 34 0 0 0 78 15 51 0 8 0 0
0 0 0 0 0 0 95 0 0 0 29 28 0 0 0 0
0 0 0 0 0 0 19 0 0 0 0 0 39 65 0
0 0 0 52 0 48 0 0 3 0 0 86 0 74
0 0 0 55 0 100 60 79 38 0 0 0 52
0 25 0 52 0 0 0 0 0 0 0 0
0 0 0 93 0 71 11 78 0 0 0
0 0 0 0 0 0 31 0 65 0
0 0 0 0 47 0 0 0 67
0 0 55 0 58 35 0 44
0 0 0 0 0 0 43
0 0 0 0 0 0
0 0 0 0 0
0 0 0 10
0 0 65
0 0
0
0 80 0 56 28 0 0 0 0 0 0 0 0 0 0 0 0 0 0 0 0 0 0 0 0 0 0 0
0 0 0 0 29 0 0 0 0 0 0 0 42 0 0 47 0 92 0 0 0 0 44 0 71 0 89
0 0 0 0 76 0 0 80 0 0 0 0 0 0 0 89 0 13 0 0 0 0 0 0 0 28
0 0 0 0 0 0 56 76 9 0 0 0 0 0 0 0 53 0 0 0 0 0 54 0 0
0 0 0 0 0 0 0 0 0 0 0 0 100 0 0 0 0 20 20 0 88 0 59 0
0 0 0 0 12 0 0 9 0 91 0 0 0 60 58 0 0 0 0 0 0 0 20
0 56 0 0 0 0 0 53 0 0 0 43 0 0 20 0 56 0 0 0 0 0
0 29 66 20 0 0 0 72 0 0 0 0 0 0 0 0 0 73 0 0 0
0 0 0 81 0 0 0 0 0 0 0 0 0 0 36 22 24 0 0 0
0 3 0 0 0 0 0 0 0 56 0 0 27 44 0 7 0 0 0
0 0 0 0 0 0 0 0 0 16 0 0 0 0 0 0 0 33
0 0 0 86 0 0 46 0 37 5 0 0 0 0 69 0 0
0 0 0 45 38 0 0 0 0 0 83 0 0 0 0 0
0 83 0 12 0 1 0 47 0 55 41 0 54 76 0
0 0 0 0 0 0 0 0 5 43 0 0 0 0
0 25 99 0 0 0 60 0 0 76 0 0 0
0 0 0 0 0 82 7 95 2 0 9 0
0 0 0 0 0 42 0 0 0 86 0
0 0 0 0 79 0 38 63 0 0
0 75 66 36 0 0 41 0 0
0 0 0 0 0 0 0 0
0 0 0 2 0 0 0
0 0 0 50 86 0
0 0 0 21 0
0 75 0 0
0 6 67
0 0
0
0 0 0 0 86 0 0 42 30 0 21 0 3 0 0 0 14 0 0 89 28 0 70 0 0 0 0
0 0 32 0 48 0 0 0 0 0 67 0 0 0 54 75 0 73 0 0 0 28 0 0 0 41
0 0 65 0 0 40 0 0 0 45 42 0 93 0 75 0 48 0 0 0 0 41 0 0 0
0 56 0 70 58 3 0 0 17 13 0 0 0 0 0 0 0 0 0 0 0 52 0 0
0 95 0 0 0 0 0 0 0 0 0 0 0 0 0 53 0 0 16 81 0 0 0
0 52 0 0 0 0 0 0 0 0 0 0 0 52 0 0 42 0 0 39 0 0
0 0 0 0 0 0 68 0 0 0 0 0 0 0 0 64 0 30 0 0 0
0 0 36 89 0 86 0 0 0 0 0 0 52 0 0 0 0 57 0 0
0 0 0 0 0 0 87 0 36 0 0 0 0 0 0 0 0 0 36
0 57 0 17 0 60 81 0 0 0 0 94 0 0 0 0 0 0
0 95 0 0 0 59 0 0 0 22 88 12 0 0 0 26 0
0 59 88 0 0 10 0 34 0 9 0 49 0 0 13 53
0 1 0 0 72 93 0 0 0 0 0 0 64 0 0
0 0 0 0 34 0 0 0 0 0 71 0 42 0
0 0 56 0 0 0 0 0 0 24 0 0 0
0 0 0 0 31 92 0 100 0 0 0 0
0 29 0 0 0 0 26 28 0 0 0
0 0 0 0 0 0 70 0 0 14
0 0 0 8 71 0 0 0 0
0 0 0 0 28 0 0 48
0 0 55 0 0 6 0
0 0 0 0 0 0
0 46 0 0 0
0 0 0 0
0 0 0
0 83
0
0 0 0 70 0 47 0 0 0 0 0 3 0 10 0 0 0 0 0 23 0 0 0 88 25 84
0 34 0 0 0 0 0 79 0 0 0 0 0 0 0 92 8 0 0 0 0 0 0 0 13
0 0 0 0 28 0 0 0 0 0 17 0 0 0 0 0 0 0 0 43 52 0 98 0
0 0 0 50 0 32 93 0 100 0 0 0 0 0 0 0 62 0 93 0 0 0 0
0 0 0 0 0 0 0 52 0 0 63 0 48 0 0 0 0 10 0 0 0 0
0 0 75 0 17 0 0 59 13 0 0 0 0 0 0 0 0 0 0 0 30
0 0 0 0 0 0 0 75 0 0 0 0 0 58 57 65 21 0 57 38
0 0 0 88 22 41 63 0 0 0 0 0 0 33 0 59 0 0 0
0 0 0 20 0 0 0 79 60 0 0 0 0 0 0 0 0 0
0 0 0 0 91 0 0 0 0 53 0 0 0 0 0 0 51
0 0 0 12 0 0 30 33 0 0 55 0 0 35 0 0
0 0 0 28 0 0 0 0 0 0 11 0 0 0 0
0 0 0 0 0 0 0 0 0 0 0 0 0 0
0 86 0 0 41 88 26 0 72 0 0 0 0
0 30 0 0 0 0 0 43 74 0 0 0
0 25 0 55 0 30 0 35 50 0 0
0 13 0 0 91 0 0 0 0 0
0 33 0 0 0 0 0 34 21
0 0 0 0 44 0 0 0
0 12 56 7 0 0 6
0 0 21 86 15 56
0 0 78 0 0
0 0 35 10
0 0 0
0 0
0
0 81 0 0 0 0 0 0 0 0 0 0 0 0 0 57 18 0 0 0 0 0 55 0 0
0 0 0 69 0 0 0 0 32 0 0 0 0 0 0 0 38 0 63 0 0 18 0 54
0 0 23 57 0 0 23 0 0 0 0 0 0 0 0 24 0 0 0 0 0 0 0
0 0 57 0 0 0 0 0 0 0 0 0 100 0 0 0 0 75 0 27 14 0
0 73 0 87 0 0 0 0 0 5 0 0 0 0 0 0 0 0 0 0 0
0 0 0 0 0 0 0 0 0 0 0 0 0 0 0 0 96 0 0 70
0 0 0 0 99 0 0 32 0 94 0 72 0 22 0 0 0 0 0
0 14 80 18 11 0 0 0 98 0 8 0 0 0 0 0 0 41
0 0 0 0 0 39 55 35 0 0 97 0 35 0 0 0 0
0 0 12 0 0 0 0 0 0 0 0 0 0 0 95 0
0 0 0 47 0 0 85 0 67 17 56 0 0 0 23
0 13 77 0 45 0 81 0 0 0 23 15 98 0
0 25 70 53 0 0 0 0 0 0 0 0 0
0 69 19 61 0 0 0 0 0 0 0 0
0 0 29 8 0 61 40 0 0 9 0
0 0 0 0 0 0 0 0 0 98
0 81 0 36 0 0 92 56 0
0 0 49 0 0 0 0 60
0 0 0 8 65 0 54
0 0 0 0 0 0
0 0 0 0 0
0 17 0 0
0 0 0
0 0
0
0 0 64 55 0 0 41 7 0 49 0 0 0 0 70 68 0 0 0 0 0 0 0 0
0 0 18 0 0 0 0 96 0 0 0 29 55 0 0 3 0 0 0 0 0 83 56
0 0 33 54 0 0 0 0 78 0 0 32 0 0 0 0 0 0 0 0 0 0
0 0 0 7 0 62 0 0 0 0 0 0 0 0 0 0 29 0 0 62 0
0 0 0 49 0 0 0 0 0 0 98 0 0 0 15 0 0 0 0 0
0 0 0 0 0 0 0 0 20 27 0 0 0 18 0 0 0 0 0
0 0 0 50 0 0 0 0 28 0 0 0 0 0 0 0 0 0
0 0 0 0 0 0 0 0 0 0 0 0 0 0 0 0 0
0 0 0 0 0 69 0 74 11 0 79 0 0 0 0 0
0 0 0 0 0 88 0 0 0 0 0 0 0 0 21
0 0 0 0 0 0 0 0 0 0 0 0 0 0
0 0 0 0 0 7 0 15 0 97 66 0 0
0 0 0 0 0 0 0 27 0 0 0 0
0 60 0 0 39 0 0 0 0 85 0
0 0 0 0 0 0 38 0 75 0
0 35 0 0 0 0 0 0 47
0 0 81 0 85 0 95 77
0 0 78 0 83 0 0
0 0 0 0 0 57
0 51 32 23 0
0 0 0 0
0 0 69
0 11
0
0 70 75 0 18 0 93 0 0 0 0 0 99 65 0 17 0 0 0 0 0 0 0
0 0 0 0 59 59 1 0 0 0 91 0 0 0 0 0 54 55 0 67 22 0
0 0 64 0 0 52 0 0 0 28 0 0 0 0 72 0 0 0 55 0 0
0 0 0 0 0 0 0 0 0 0 0 35 0 0 0 0 0 0 0 0
0 0 0 28 0 0 0 0 0 0 4 0 0 1 0 0 0 0 100
0 0 6 0 0 35 0 43 0 0 16 75 74 0 0 74 48 0
0 0 0 12 0 0 0 0 47 0 0 14 0 39 0 0 0
0 0 9 21 70 0 0 0 0 0 51 0 0 0 0 78
0 25 74 0 0 15 0 23 0 0 0 0 0 14 0
0 0 0 0 0 0 0 0 76 0 0 0 94 48
0 0 0 0 0 0 0 89 0 0 0 0 0
0 99 0 0 52 0 0 0 0 0 0 73
0 0 40 6 0 45 0 0 0 0 0
0 36 0 0 0 0 0 0 0 26
0 50 0 0 0 0 0 0 20
0 10 0 0 0 95 0 0
0 0 0 69 0 0 0
0 18 96 0 0 0
0 0 0 73 0
0 0 0 0
0 91 48
0 33
0
0 0 0 0 0 0 77 0 0 36 0 0 0 19 0 0 25 9 0 0 26 0
0 39 0 0 0 72 0 0 0 0 85 0 0 0 0 0 0 57 0 0 0
0 0 0 0 41 0 0 0 0 77 0 0 0 0 12 0 0 21 39 0
0 0 0 0 0 0 0 0 0 0 0 0 0 64 0 0 0 0 0
0 0 86 0 0 59 0 24 0 0 0 0 0 0 46 0 0 0
0 0 71 0 0 0 0 28 0 66 0 85 0 0 89 0 26
0 0 0 0 0 0 60 38 0 0 0 0 0 0 0 0
0 44 30 14 0 0 0 0 0 0 0 0 0 0 0
0 0 0 0 0 89 0 94 6 0 79 24 0 0
0 0 0 3 0 0 0 0 0 0 0 81 0
0 0 0 0 17 21 0 93 0 41 0 0
0 0 0 93 0 0 0 0 0 0 79
0 0 48 71 0 0 0 0 0 0
0 42 0 81 56 0 0 41 0
0 0 71 0 0 0 0 0
0 0 0 0 0 0 0
0 0 0 0 0 0
0 0 0 0 0
0 0 31 0
0 67 0
0 0
0
0 0 0 0 0 0 91 46 0 0 0 0 62 0 0 0 0 0 64 0 0
0 81 0 87 67 12 0 0 0 0 28 0 0 77 51 19 0 0 0 0
0 0 0 0 0 24 51 0 0 0 0 0 89 0 0 0 36 46 78
0 68 0 0 0 59 0 0 0 0 0 82 19 0 0 0 0 0
0 0 33 0 0 10 0 0 33 0 62 0 0 0 34 0 0
0 0 0 0 0 0 0 0 0 0 39 14 21 0 0 0
0 0 93 0 60 0 0 0 0 0 0 56 0 0 0
0 86 76 0 20 0 26 2 36 24 0 90 0 0
0 80 0 0 0 0 27 0 0 0 4 0 0
0 50 0 30 75 0 0 0 0 0 0 44
0 0 0 0 0 0 0 0 0 0 0
0 0 0 0 0 0 0 29 0 0
0 0 0 0 28 0 0 0 0
0 0 46 25 0 23 0 0
0 0 14 5 0 0 0
0 0 0 0 0 77
0 0 0 0 0
0 0 42 0
0 0 0
0 0
0
0 0 0 53 0 0 0 0 0 3 0 0 0 0 92 0 0 38 0 0
0 0 53 0 0 0 0 0 20 0 0 0 44 0 0 0 0 0 0
0 0 0 41 0 0 16 0 0 0 22 0 0 0 0 16 0 75
0 44 0 58 0 0 29 0 0 0 0 60 0 0 0 0 0
0 76 0 4 0 0 18 0 0 0 0 0 0 0 0 0
0 0 0 84 0 0 0 0 0 0 0 0 0 0 35
0 0 0 0 84 0 0 0 0 32 0 0 0 0
0 0 0 0 0 0 80 0 26 0 0 0 60
0 67 0 19 0 0 0 0 0 26 0 11
0 0 34 0 80 72 0 0 0 0 0
0 0 0 0 0 0 0 0 0 0
0 0 0 0 0 0 0 0 0
0 49 0 0 0 44 0 24
0 43 0 0 0 0 0
0 0 0 0 0 47
0 0 27 0 0
0 97 58 0
0 88 0
0 0
0
0 0 0 0 0 4 0 0 0 53 69 0 0 0 0 0 81 0 0
0 0 0 0 0 0 0 0 0 0 41 0 0 0 0 0 0 0
0 20 0 0 0 73 0 20 0 10 0 0 0 0 0 25 0
0 66 0 0 0 0 0 0 34 80 0 0 0 2 0 0
0 0 0 0 0 96 0 0 0 0 0 0 0 29 0
0 0 0 0 0 0 0 62 92 0 0 37 0 0
0 0 55 0 71 0 0 0 0 0 63 0 0
0 0 0 0 99 0 0 0 0 0 0 0
0 0 0 0 0 0 0 0 14 60 4
0 0 89 0 0 58 0 0 0 0
0 0 0 0 0 0 0 0 0
0 0 0 0 0 0 0 0
0 0 47 100 0 1 0
0 0 0 0 16 0
0 0 46 0 0
0 0 41 0
0 0 0
0 92
0
0 0 0 0 0 41 0 0 29 0 0 0 61 41 0 0 0 0
0 0 0 0 0 0 65 0 0 0 0 0 49 0 0 0 0
0 0 0 0 0 12 0 0 0 0 83 67 24 0 63 27
0 0 0 0 93 37 74 50 0 0 0 31 0 34 0
0 0 0 0 0 0 0 0 0 0 0 0 0 4
0 0 0 0 0 0 0 28 0 0 0 0 0
0 0 0 0 0 0 43 70 0 0 0 0
0 0 0 76 0 0 0 80 87 0 0
0 0 0 0 0 0 0 83 0 0
0 0 35 1 80 0 0 0 0
0 0 0 43 0 0 0 0
0 0 6 0 0 67 88
0 0 0 0 0 0
0 0 0 0 86
0 0 0 0
0 0 0
0 85
0
0 0 10 69 40 0 0 0 0 0 0 76 0 0 42 0 0
0 22 64 0 0 0 21 0 0 45 77 0 0 0 0 0
0 0 0 43 56 0 0 23 0 0 0 0 0 0 0
0 85 0 0 0 0 0 0 0 0 0 5 37 39
0 0 74 0 0 0 0 0 75 82 0 0 0
0 0 0 0 2 0 0 0 0 0 61 90
0 0 0 0 95 0 97 0 0 0 0
0 0 0 55 11 0 0 0 0 0
0 0 32 17 0 0 0 0 0
0 0 0 0 0 72 0 0
0 0 0 0 0 0 0
0 0 0 0 0 0
0 25 0 0 0
0 0 0 97
0 0 61
0 40
0
0 79 0 0 0 0 0 0 0 0 0 0 0 0 0 78
0 9 32 0 0 0 0 0 31 0 0 94 0 78 0
0 0 75 62 0 0 0 0 91 0 0 0 90 67
0 12 0 0 0 0 0 0 0 0 0 0 0
0 0 0 0 0 7 92 0 17 0 0 0
0 58 0 0 0 0 57 0 16 31 0
0 0 0 65 0 0 0 0 0 0
0 0 0 0 11 0 70 0 31
0 24 0 0 0 0 0 70
0 0 0 0 0 0 0
0 0 0 87 0 0
0 0 58 100 0
0 0 0 0
0 27 0
0 0
0
0 0 73 44 0 45 0 0 0 0 0 88 0 0 0
0 0 0 0 0 0 0 0 0 77 0 0 0 0
0 0 0 0 84 88 0 0 0 94 0 0 95
0 0 0 96 0 0 0 81 0 0 0 0
0 93 0 0 0 0 78 0 0 0 0
0 0 0 0 96 0 0 0 0 0
0 0 19 0 9 0 0 92 0
0 0 0 33 0 0 0 0
0 0 0 17 38 0 78
0 14 0 0 0 0
0 54 0 25 0
0 0 0 5
0 0 72
0 0
0
0 0 0 14 0 0 0 18 0 0 54 0 58 84
0 0 0 0 0 0 0 0 0 0 63 0 0
0 0 40 0 100 0 0 0 0 0 15 46
0 0 0 0 0 45 0 0 0 0 0
0 0 0 43 0 0 37 0 0 0
0 0 92 0 0 21 0 41 0
0 0 0 0 0 77 0 0
0 0 0 0 0 0 0
0 0 74 0 0 0
0 0 0 7 0
0 0 0 0
0 0 0
0 0
0
0 0 0 0 0 0 0 0 0 0 62 0 29
0 86 0 87 19 0 0 0 0 65 0 0
0 51 0 0 0 0 0 0 0 0 0
0 0 0 12 0 0 0 0 0 74
0 77 0 0 0 17 1 13 0
0 0 0 0 0 0 0 0
0 0 35 23 0 0 47
0 0 0 0 0 19
0 0 0 0 0
0 0 0 0
0 0 58
0 0
0
0 0 43 0 0 97 0 61 56 0 0 0
0 0 69 0 0 0 46 1 0 0 97
0 0 0 0 0 0 0 0 0 0
0 0 0 0 0 0 0 0 0
0 60 65 0 40 21 0 0
0 0 0 0 0 0 0
0 0 0 0 23 0
0 23 0 53 34
0 25 0 0
0 0 0
0 0
0
0 0 76 39 0 0 0 0 20 0 0
0 0 34 0 0 0 72 0 0 0
0 0 0 0 0 0 0 38 19
0 0 0 46 0 0 0 0
0 28 0 0 0 0 0
0 0 0 0 0 77
0 0 0 0 0
0 0 0 0
0 8 0
0 0
0
0 0 52 0 0 0 0 54 0 56
0 61 41 0 0 0 0 0 0
0 0 71 0 0 71 0 0
0 0 0 0 0 0 77
0 0 0 0 77 79
0 0 47 0 0
0 98 17 38
0 0 17
0 0
0
0 0 0 0 0 0 0 0 0
0 37 0 0 51 0 55 43
0 6 0 71 72 0 0
0 0 0 77 0 0
0 0 0 0 0
0 86 65 13
0 34 0
0 0
0
0 0 97 92 0 0 0 61
0 0 0 0 0 0 54
0 31 0 69 0 0
0 0 0 0 0
0 0 0 0
0 0 0
0 65
0
0 0 0 0 0 76 88
0 0 0 0 0 0
0 0 10 38 10
0 0 0 97
0 0 0
0 0
0
0 0 0 0 0 0
0 57 0 0 0
0 0 0 0
0 100 0
0 0
0
0 23 0 0 0
0 27 87 0
0 0 0
0 0
0
0 0 76 0
0 0 0
0 0
0
0 0 0
0 0
0
0 0
0
0
6191 5282 5579 5817 5749 5208 5874 6123 5288 5063 5288 4918 4868 5795 5699 5789 5338 5644 5312 6332 5703 5280 5772 5138 5940 5327 4955 5645 5039 6002
505.38775510204084 524.0079365079365 158.69751602564102 693.5653846153847 808.453125 213.19298245614033 353.61872909698997 215.36525974025972 303.81366459627327 148.79186795491142 210.61735419630156 223.96963946869073 864.2463768115942 486.29370629370635 401.5204545454545 434.175 2761.0344827586205 233.04804804804803 289.98511166253104 293.81439393939394 307.1737804878049 214.28571428571428 150.19367588932806 348.65 144.1578947368421 908.0113636363636 490.3385416666667 179.12019230769232 177.63807285546415 197.16714975845412
